p cnf 3486
-19 -291
-20 -104
-21 -107
-22 -110
-23 -113
-24 -116
-25 -119
-26 -122
-27 -125
-28 -128
-29 -338
-30 -344
-31 -350
-32 -356
-33 -362
-34 -368
-35 -374
-36 -380
-37 -386
-38 -416
-39 -435
-40 -453
-41 -463
-42 -482
-43 -501
-44 -519
-45 -529
-46 -548
-47 -567
-48 -585
-49 -595
-50 -614
-51 -633
-52 -651
-53 -661
-54 -680
-55 -699
-56 -717
-57 -727
-58 -746
-59 -765
-60 -783
-61 -793
-62 -812
-63 -831
-64 -849
-65 -859
-66 -878
-67 -897
-68 -915
-69 -925
-70 -944
-71 -963
-72 -981
-73 -991
-74 -1068
-75 -1074
-76 -1080
-77 -1086
-78 1
-78 -29
-1 29 78
-79 2
-79 -30
-2 30 79
-80 3
-80 -31
-3 31 80
-81 4
-81 -32
-4 32 81
-82 5
-82 -33
-5 33 82
-83 6
-83 -34
-6 34 83
-84 7
-84 -35
-7 35 84
-85 8
-85 -36
-8 36 85
-86 9
-86 -37
-9 37 86
-87 -78
-87 79
78 -79 87
-88 -78
-88 -87
78 87 88
-89 80
-89 88
-80 -88 89
-90 88
-90 -89
-88 89 90
-91 81
-91 90
-81 -90 91
-92 90
-92 -91
-90 91 92
-93 82
-93 92
-82 -92 93
-94 92
-94 -93
-92 93 94
-95 83
-95 94
-83 -94 95
-96 94
-96 -95
-94 95 96
-97 84
-97 96
-84 -96 97
-98 96
-98 -97
-96 97 98
-99 85
-99 98
-85 -98 99
-100 98
-100 -99
-98 99 100
-101 86
-101 100
-86 -100 101
-102 -19
-102 78
19 -78 102
-103 19
-103 20
-19 -20 103
-104 -102
-104 -103
102 103 104
-105 -19
-105 87
19 -87 105
-106 19
-106 21
-19 -21 106
-107 -105
-107 -106
105 106 107
-108 -19
-108 89
19 -89 108
-109 19
-109 22
-19 -22 109
-110 -108
-110 -109
108 109 110
-111 -19
-111 91
19 -91 111
-112 19
-112 23
-19 -23 112
-113 -111
-113 -112
111 112 113
-114 -19
-114 93
19 -93 114
-115 19
-115 24
-19 -24 115
-116 -114
-116 -115
114 115 116
-117 -19
-117 95
19 -95 117
-118 19
-118 25
-19 -25 118
-119 -117
-119 -118
117 118 119
-120 -19
-120 97
19 -97 120
-121 19
-121 26
-19 -26 121
-122 -120
-122 -121
120 121 122
-123 -19
-123 99
19 -99 123
-124 19
-124 27
-19 -27 124
-125 -123
-125 -124
123 124 125
-126 -19
-126 101
19 -101 126
-127 19
-127 28
-19 -28 127
-128 -126
-128 -127
126 127 128
-129 1
-129 -104
-1 104 129
-130 2
-130 -107
-2 107 130
-131 3
-131 -110
-3 110 131
-132 4
-132 -113
-4 113 132
-133 5
-133 -116
-5 116 133
-134 6
-134 -119
-6 119 134
-135 7
-135 -122
-7 122 135
-136 8
-136 -125
-8 125 136
-137 9
-137 -128
-9 128 137
-138 38
-138 -39
-38 39 138
-139 -40
-139 -41
40 41 139
-140 138
-140 139
-138 -139 140
-141 -38
-141 -39
38 39 141
-142 -40
-142 41
40 -41 142
-143 141
-143 142
-141 -142 143
-144 -140
-144 -143
140 143 144
-145 129
-145 -144
-129 144 145
-146 42
-146 -43
-42 43 146
-147 -44
-147 -45
44 45 147
-148 146
-148 147
-146 -147 148
-149 -42
-149 -43
42 43 149
-150 -44
-150 45
44 -45 150
-151 149
-151 150
-149 -150 151
-152 -148
-152 -151
148 151 152
-153 130
-153 -152
-130 152 153
-154 46
-154 -47
-46 47 154
-155 -48
-155 -49
48 49 155
-156 154
-156 155
-154 -155 156
-157 -46
-157 -47
46 47 157
-158 -48
-158 49
48 -49 158
-159 157
-159 158
-157 -158 159
-160 -156
-160 -159
156 159 160
-161 131
-161 -160
-131 160 161
-162 50
-162 -51
-50 51 162
-163 -52
-163 -53
52 53 163
-164 162
-164 163
-162 -163 164
-165 -50
-165 -51
50 51 165
-166 -52
-166 53
52 -53 166
-167 165
-167 166
-165 -166 167
-168 -164
-168 -167
164 167 168
-169 132
-169 -168
-132 168 169
-170 54
-170 -55
-54 55 170
-171 -56
-171 -57
56 57 171
-172 170
-172 171
-170 -171 172
-173 -54
-173 -55
54 55 173
-174 -56
-174 57
56 -57 174
-175 173
-175 174
-173 -174 175
-176 -172
-176 -175
172 175 176
-177 133
-177 -176
-133 176 177
-178 58
-178 -59
-58 59 178
-179 -60
-179 -61
60 61 179
-180 178
-180 179
-178 -179 180
-181 -58
-181 -59
58 59 181
-182 -60
-182 61
60 -61 182
-183 181
-183 182
-181 -182 183
-184 -180
-184 -183
180 183 184
-185 134
-185 -184
-134 184 185
-186 62
-186 -63
-62 63 186
-187 -64
-187 -65
64 65 187
-188 186
-188 187
-186 -187 188
-189 -62
-189 -63
62 63 189
-190 -64
-190 65
64 -65 190
-191 189
-191 190
-189 -190 191
-192 -188
-192 -191
188 191 192
-193 135
-193 -192
-135 192 193
-194 66
-194 -67
-66 67 194
-195 -68
-195 -69
68 69 195
-196 194
-196 195
-194 -195 196
-197 -66
-197 -67
66 67 197
-198 -68
-198 69
68 -69 198
-199 197
-199 198
-197 -198 199
-200 -196
-200 -199
196 199 200
-201 136
-201 -200
-136 200 201
-202 70
-202 -71
-70 71 202
-203 -72
-203 -73
72 73 203
-204 202
-204 203
-202 -203 204
-205 -70
-205 -71
70 71 205
-206 -72
-206 73
72 -73 206
-207 205
-207 206
-205 -206 207
-208 -204
-208 -207
204 207 208
-209 137
-209 -208
-137 208 209
-210 -145
-210 -153
145 153 210
-211 -161
-211 -169
161 169 211
-212 -177
-212 -185
177 185 212
-213 -193
-213 -201
193 201 213
-214 210
-214 211
-210 -211 214
-215 212
-215 213
-212 -213 215
-216 214
-216 215
-214 -215 216
-217 -209
-217 216
209 -216 217
-218 -38
-218 39
38 -39 218
-219 40
-219 -41
-40 41 219
-220 218
-220 219
-218 -219 220
-221 40
-221 41
-40 -41 221
-222 138
-222 221
-138 -221 222
-223 -220
-223 -222
220 222 223
-224 129
-224 -223
-129 223 224
-225 -42
-225 43
42 -43 225
-226 44
-226 -45
-44 45 226
-227 225
-227 226
-225 -226 227
-228 44
-228 45
-44 -45 228
-229 146
-229 228
-146 -228 229
-230 -227
-230 -229
227 229 230
-231 130
-231 -230
-130 230 231
-232 -46
-232 47
46 -47 232
-233 48
-233 -49
-48 49 233
-234 232
-234 233
-232 -233 234
-235 48
-235 49
-48 -49 235
-236 154
-236 235
-154 -235 236
-237 -234
-237 -236
234 236 237
-238 131
-238 -237
-131 237 238
-239 -50
-239 51
50 -51 239
-240 52
-240 -53
-52 53 240
-241 239
-241 240
-239 -240 241
-242 52
-242 53
-52 -53 242
-243 162
-243 242
-162 -242 243
-244 -241
-244 -243
241 243 244
-245 132
-245 -244
-132 244 245
-246 -54
-246 55
54 -55 246
-247 56
-247 -57
-56 57 247
-248 246
-248 247
-246 -247 248
-249 56
-249 57
-56 -57 249
-250 170
-250 249
-170 -249 250
-251 -248
-251 -250
248 250 251
-252 133
-252 -251
-133 251 252
-253 -58
-253 59
58 -59 253
-254 60
-254 -61
-60 61 254
-255 253
-255 254
-253 -254 255
-256 60
-256 61
-60 -61 256
-257 178
-257 256
-178 -256 257
-258 -255
-258 -257
255 257 258
-259 134
-259 -258
-134 258 259
-260 -62
-260 63
62 -63 260
-261 64
-261 -65
-64 65 261
-262 260
-262 261
-260 -261 262
-263 64
-263 65
-64 -65 263
-264 186
-264 263
-186 -263 264
-265 -262
-265 -264
262 264 265
-266 135
-266 -265
-135 265 266
-267 -66
-267 67
66 -67 267
-268 68
-268 -69
-68 69 268
-269 267
-269 268
-267 -268 269
-270 68
-270 69
-68 -69 270
-271 194
-271 270
-194 -270 271
-272 -269
-272 -271
269 271 272
-273 136
-273 -272
-136 272 273
-274 -70
-274 71
70 -71 274
-275 72
-275 -73
-72 73 275
-276 274
-276 275
-274 -275 276
-277 72
-277 73
-72 -73 277
-278 202
-278 277
-202 -277 278
-279 -276
-279 -278
276 278 279
-280 137
-280 -279
-137 279 280
-281 -224
-281 -231
224 231 281
-282 -238
-282 -245
238 245 282
-283 -252
-283 -259
252 259 283
-284 -266
-284 -273
266 273 284
-285 281
-285 282
-281 -282 285
-286 283
-286 284
-283 -284 286
-287 285
-287 286
-285 -286 287
-288 -280
-288 287
280 -287 288
-289 19
-289 288
-19 -288 289
-290 217
-290 289
-217 -289 290
-291 217
-291 -290
-217 290 291
-292 -29
-292 30
29 -30 292
-293 -29
-293 -292
29 292 293
-294 31
-294 293
-31 -293 294
-295 293
-295 -294
-293 294 295
-296 32
-296 295
-32 -295 296
-297 295
-297 -296
-295 296 297
-298 33
-298 297
-33 -297 298
-299 297
-299 -298
-297 298 299
-300 34
-300 299
-34 -299 300
-301 299
-301 -300
-299 300 301
-302 35
-302 301
-35 -301 302
-303 301
-303 -302
-301 302 303
-304 36
-304 303
-36 -303 304
-305 303
-305 -304
-303 304 305
-306 37
-306 305
-37 -305 306
-307 141
-307 221
-141 -221 307
-308 129
-308 307
-129 -307 308
-309 149
-309 228
-149 -228 309
-310 130
-310 309
-130 -309 310
-311 157
-311 235
-157 -235 311
-312 131
-312 311
-131 -311 312
-313 165
-313 242
-165 -242 313
-314 132
-314 313
-132 -313 314
-315 173
-315 249
-173 -249 315
-316 133
-316 315
-133 -315 316
-317 181
-317 256
-181 -256 317
-318 134
-318 317
-134 -317 318
-319 189
-319 263
-189 -263 319
-320 135
-320 319
-135 -319 320
-321 197
-321 270
-197 -270 321
-322 136
-322 321
-136 -321 322
-323 205
-323 277
-205 -277 323
-324 137
-324 323
-137 -323 324
-325 -308
-325 -310
308 310 325
-326 -312
-326 -314
312 314 326
-327 -316
-327 -318
316 318 327
-328 -320
-328 -322
320 322 328
-329 325
-329 326
-325 -326 329
-330 327
-330 328
-327 -328 330
-331 329
-331 330
-329 -330 331
-332 -324
-332 331
324 -331 332
-333 138
-333 219
-138 -219 333
-334 129
-334 333
-129 -333 334
-335 29
-335 -332
-29 332 335
-336 29
-336 -335
-29 335 336
-337 -334
-337 336
334 -336 337
-338 -334
-338 -337
334 337 338
-339 146
-339 226
-146 -226 339
-340 130
-340 339
-130 -339 340
-341 292
-341 -332
-292 332 341
-342 30
-342 -341
-30 341 342
-343 -340
-343 342
340 -342 343
-344 -340
-344 -343
340 343 344
-345 154
-345 233
-154 -233 345
-346 131
-346 345
-131 -345 346
-347 294
-347 -332
-294 332 347
-348 31
-348 -347
-31 347 348
-349 -346
-349 348
346 -348 349
-350 -346
-350 -349
346 349 350
-351 162
-351 240
-162 -240 351
-352 132
-352 351
-132 -351 352
-353 296
-353 -332
-296 332 353
-354 32
-354 -353
-32 353 354
-355 -352
-355 354
352 -354 355
-356 -352
-356 -355
352 355 356
-357 170
-357 247
-170 -247 357
-358 133
-358 357
-133 -357 358
-359 298
-359 -332
-298 332 359
-360 33
-360 -359
-33 359 360
-361 -358
-361 360
358 -360 361
-362 -358
-362 -361
358 361 362
-363 178
-363 254
-178 -254 363
-364 134
-364 363
-134 -363 364
-365 300
-365 -332
-300 332 365
-366 34
-366 -365
-34 365 366
-367 -364
-367 366
364 -366 367
-368 -364
-368 -367
364 367 368
-369 186
-369 261
-186 -261 369
-370 135
-370 369
-135 -369 370
-371 302
-371 -332
-302 332 371
-372 35
-372 -371
-35 371 372
-373 -370
-373 372
370 -372 373
-374 -370
-374 -373
370 373 374
-375 194
-375 268
-194 -268 375
-376 136
-376 375
-136 -375 376
-377 304
-377 -332
-304 332 377
-378 36
-378 -377
-36 377 378
-379 -376
-379 378
376 -378 379
-380 -376
-380 -379
376 379 380
-381 202
-381 275
-202 -275 381
-382 137
-382 381
-137 -381 382
-383 306
-383 -332
-306 332 383
-384 37
-384 -383
-37 383 384
-385 -382
-385 384
382 -384 385
-386 -382
-386 -385
382 385 386
-387 -29
-387 -30
29 30 387
-388 -31
-388 -32
31 32 388
-389 -33
-389 -34
33 34 389
-390 -35
-390 -36
35 36 390
-391 387
-391 388
-387 -388 391
-392 389
-392 390
-389 -390 392
-393 391
-393 392
-391 -392 393
-394 -37
-394 393
37 -393 394
-395 -74
-395 -75
74 75 395
-396 -76
-396 77
76 -77 396
-397 395
-397 396
-395 -396 397
-398 -39
-398 -141
39 141 398
-399 40
-399 141
-40 -141 399
-400 -40
-400 -398
40 398 400
-401 -399
-401 -400
399 400 401
-402 -10
-402 38
10 -38 402
-403 38
-403 -402
-38 402 403
-404 39
-404 -403
-39 403 404
-405 10
-405 -38
-10 38 405
-406 -39
-406 405
39 -405 406
-407 -218
-407 -406
218 406 407
-408 40
-408 404
-40 -404 408
-409 -40
-409 -407
40 407 409
-410 -408
-410 -409
408 409 410
-411 41
-411 -401
-41 401 411
-412 -41
-412 -410
41 410 412
-413 -411
-413 -412
411 412 413
-414 129
-414 -413
-129 413 414
-415 38
-415 -129
-38 129 415
-416 -414
-416 -415
414 415 416
-417 38
-417 394
-38 -394 417
-418 -39
-418 417
39 -417 418
-419 -218
-419 -418
218 418 419
-420 40
-420 138
-40 -138 420
-421 -40
-421 -419
40 419 421
-422 -420
-422 -421
420 421 422
-423 39
-423 -404
-39 404 423
-424 -38
-424 -397
38 397 424
-425 39
-425 424
-39 -424 425
-426 -138
-426 -425
138 425 426
-427 40
-427 -423
-40 423 427
-428 -40
-428 -426
40 426 428
-429 -427
-429 -428
427 428 429
-430 41
-430 -422
-41 422 430
-431 -41
-431 -429
41 429 431
-432 -430
-432 -431
430 431 432
-433 129
-433 -432
-129 432 433
-434 39
-434 -129
-39 129 434
-435 -433
-435 -434
433 434 435
-436 38
-436 -394
-38 394 436
-437 38
-437 39
-38 -39 437
-438 -39
-438 436
39 -436 438
-439 -437
-439 -438
437 438 439
-440 -39
-440 40
39 -40 440
-441 -40
-441 -439
40 439 441
-442 -440
-442 -441
440 441 442
-443 -38
-443 397
38 -397 443
-444 -38
-444 -443
38 443 444
-445 39
-445 -444
-39 444 445
-446 -40
-446 445
40 -445 446
-447 -427
-447 -446
427 446 447
-448 41
-448 -442
-41 442 448
-449 -41
-449 -447
41 447 449
-450 -448
-450 -449
448 449 450
-451 129
-451 -450
-129 450 451
-452 40
-452 -129
-40 129 452
-453 -451
-453 -452
451 452 453
-454 40
-454 -440
-40 440 454
-455 10
-455 38
-10 -38 455
-456 39
-456 455
-39 -455 456
-457 40
-457 456
-40 -456 457
-458 41
-458 -454
-41 454 458
-459 -41
-459 457
41 -457 459
-460 -458
-460 -459
458 459 460
-461 129
-461 -460
-129 460 461
-462 41
-462 -129
-41 129 462
-463 -461
-463 -462
461 462 463
-464 -43
-464 -149
43 149 464
-465 44
-465 149
-44 -149 465
-466 -44
-466 -464
44 464 466
-467 -465
-467 -466
465 466 467
-468 -11
-468 42
11 -42 468
-469 42
-469 -468
-42 468 469
-470 43
-470 -469
-43 469 470
-471 11
-471 -42
-11 42 471
-472 -43
-472 471
43 -471 472
-473 -225
-473 -472
225 472 473
-474 44
-474 470
-44 -470 474
-475 -44
-475 -473
44 473 475
-476 -474
-476 -475
474 475 476
-477 45
-477 -467
-45 467 477
-478 -45
-478 -476
45 476 478
-479 -477
-479 -478
477 478 479
-480 130
-480 -479
-130 479 480
-481 42
-481 -130
-42 130 481
-482 -480
-482 -481
480 481 482
-483 42
-483 394
-42 -394 483
-484 -43
-484 483
43 -483 484
-485 -225
-485 -484
225 484 485
-486 44
-486 146
-44 -146 486
-487 -44
-487 -485
44 485 487
-488 -486
-488 -487
486 487 488
-489 43
-489 -470
-43 470 489
-490 -42
-490 -397
42 397 490
-491 43
-491 490
-43 -490 491
-492 -146
-492 -491
146 491 492
-493 44
-493 -489
-44 489 493
-494 -44
-494 -492
44 492 494
-495 -493
-495 -494
493 494 495
-496 45
-496 -488
-45 488 496
-497 -45
-497 -495
45 495 497
-498 -496
-498 -497
496 497 498
-499 130
-499 -498
-130 498 499
-500 43
-500 -130
-43 130 500
-501 -499
-501 -500
499 500 501
-502 42
-502 -394
-42 394 502
-503 42
-503 43
-42 -43 503
-504 -43
-504 502
43 -502 504
-505 -503
-505 -504
503 504 505
-506 -43
-506 44
43 -44 506
-507 -44
-507 -505
44 505 507
-508 -506
-508 -507
506 507 508
-509 -42
-509 397
42 -397 509
-510 -42
-510 -509
42 509 510
-511 43
-511 -510
-43 510 511
-512 -44
-512 511
44 -511 512
-513 -493
-513 -512
493 512 513
-514 45
-514 -508
-45 508 514
-515 -45
-515 -513
45 513 515
-516 -514
-516 -515
514 515 516
-517 130
-517 -516
-130 516 517
-518 44
-518 -130
-44 130 518
-519 -517
-519 -518
517 518 519
-520 44
-520 -506
-44 506 520
-521 11
-521 42
-11 -42 521
-522 43
-522 521
-43 -521 522
-523 44
-523 522
-44 -522 523
-524 45
-524 -520
-45 520 524
-525 -45
-525 523
45 -523 525
-526 -524
-526 -525
524 525 526
-527 130
-527 -526
-130 526 527
-528 45
-528 -130
-45 130 528
-529 -527
-529 -528
527 528 529
-530 -47
-530 -157
47 157 530
-531 48
-531 157
-48 -157 531
-532 -48
-532 -530
48 530 532
-533 -531
-533 -532
531 532 533
-534 -12
-534 46
12 -46 534
-535 46
-535 -534
-46 534 535
-536 47
-536 -535
-47 535 536
-537 12
-537 -46
-12 46 537
-538 -47
-538 537
47 -537 538
-539 -232
-539 -538
232 538 539
-540 48
-540 536
-48 -536 540
-541 -48
-541 -539
48 539 541
-542 -540
-542 -541
540 541 542
-543 49
-543 -533
-49 533 543
-544 -49
-544 -542
49 542 544
-545 -543
-545 -544
543 544 545
-546 131
-546 -545
-131 545 546
-547 46
-547 -131
-46 131 547
-548 -546
-548 -547
546 547 548
-549 46
-549 394
-46 -394 549
-550 -47
-550 549
47 -549 550
-551 -232
-551 -550
232 550 551
-552 48
-552 154
-48 -154 552
-553 -48
-553 -551
48 551 553
-554 -552
-554 -553
552 553 554
-555 47
-555 -536
-47 536 555
-556 -46
-556 -397
46 397 556
-557 47
-557 556
-47 -556 557
-558 -154
-558 -557
154 557 558
-559 48
-559 -555
-48 555 559
-560 -48
-560 -558
48 558 560
-561 -559
-561 -560
559 560 561
-562 49
-562 -554
-49 554 562
-563 -49
-563 -561
49 561 563
-564 -562
-564 -563
562 563 564
-565 131
-565 -564
-131 564 565
-566 47
-566 -131
-47 131 566
-567 -565
-567 -566
565 566 567
-568 46
-568 -394
-46 394 568
-569 46
-569 47
-46 -47 569
-570 -47
-570 568
47 -568 570
-571 -569
-571 -570
569 570 571
-572 -47
-572 48
47 -48 572
-573 -48
-573 -571
48 571 573
-574 -572
-574 -573
572 573 574
-575 -46
-575 397
46 -397 575
-576 -46
-576 -575
46 575 576
-577 47
-577 -576
-47 576 577
-578 -48
-578 577
48 -577 578
-579 -559
-579 -578
559 578 579
-580 49
-580 -574
-49 574 580
-581 -49
-581 -579
49 579 581
-582 -580
-582 -581
580 581 582
-583 131
-583 -582
-131 582 583
-584 48
-584 -131
-48 131 584
-585 -583
-585 -584
583 584 585
-586 48
-586 -572
-48 572 586
-587 12
-587 46
-12 -46 587
-588 47
-588 587
-47 -587 588
-589 48
-589 588
-48 -588 589
-590 49
-590 -586
-49 586 590
-591 -49
-591 589
49 -589 591
-592 -590
-592 -591
590 591 592
-593 131
-593 -592
-131 592 593
-594 49
-594 -131
-49 131 594
-595 -593
-595 -594
593 594 595
-596 -51
-596 -165
51 165 596
-597 52
-597 165
-52 -165 597
-598 -52
-598 -596
52 596 598
-599 -597
-599 -598
597 598 599
-600 -13
-600 50
13 -50 600
-601 50
-601 -600
-50 600 601
-602 51
-602 -601
-51 601 602
-603 13
-603 -50
-13 50 603
-604 -51
-604 603
51 -603 604
-605 -239
-605 -604
239 604 605
-606 52
-606 602
-52 -602 606
-607 -52
-607 -605
52 605 607
-608 -606
-608 -607
606 607 608
-609 53
-609 -599
-53 599 609
-610 -53
-610 -608
53 608 610
-611 -609
-611 -610
609 610 611
-612 132
-612 -611
-132 611 612
-613 50
-613 -132
-50 132 613
-614 -612
-614 -613
612 613 614
-615 50
-615 394
-50 -394 615
-616 -51
-616 615
51 -615 616
-617 -239
-617 -616
239 616 617
-618 52
-618 162
-52 -162 618
-619 -52
-619 -617
52 617 619
-620 -618
-620 -619
618 619 620
-621 51
-621 -602
-51 602 621
-622 -50
-622 -397
50 397 622
-623 51
-623 622
-51 -622 623
-624 -162
-624 -623
162 623 624
-625 52
-625 -621
-52 621 625
-626 -52
-626 -624
52 624 626
-627 -625
-627 -626
625 626 627
-628 53
-628 -620
-53 620 628
-629 -53
-629 -627
53 627 629
-630 -628
-630 -629
628 629 630
-631 132
-631 -630
-132 630 631
-632 51
-632 -132
-51 132 632
-633 -631
-633 -632
631 632 633
-634 50
-634 -394
-50 394 634
-635 50
-635 51
-50 -51 635
-636 -51
-636 634
51 -634 636
-637 -635
-637 -636
635 636 637
-638 -51
-638 52
51 -52 638
-639 -52
-639 -637
52 637 639
-640 -638
-640 -639
638 639 640
-641 -50
-641 397
50 -397 641
-642 -50
-642 -641
50 641 642
-643 51
-643 -642
-51 642 643
-644 -52
-644 643
52 -643 644
-645 -625
-645 -644
625 644 645
-646 53
-646 -640
-53 640 646
-647 -53
-647 -645
53 645 647
-648 -646
-648 -647
646 647 648
-649 132
-649 -648
-132 648 649
-650 52
-650 -132
-52 132 650
-651 -649
-651 -650
649 650 651
-652 52
-652 -638
-52 638 652
-653 13
-653 50
-13 -50 653
-654 51
-654 653
-51 -653 654
-655 52
-655 654
-52 -654 655
-656 53
-656 -652
-53 652 656
-657 -53
-657 655
53 -655 657
-658 -656
-658 -657
656 657 658
-659 132
-659 -658
-132 658 659
-660 53
-660 -132
-53 132 660
-661 -659
-661 -660
659 660 661
-662 -55
-662 -173
55 173 662
-663 56
-663 173
-56 -173 663
-664 -56
-664 -662
56 662 664
-665 -663
-665 -664
663 664 665
-666 -14
-666 54
14 -54 666
-667 54
-667 -666
-54 666 667
-668 55
-668 -667
-55 667 668
-669 14
-669 -54
-14 54 669
-670 -55
-670 669
55 -669 670
-671 -246
-671 -670
246 670 671
-672 56
-672 668
-56 -668 672
-673 -56
-673 -671
56 671 673
-674 -672
-674 -673
672 673 674
-675 57
-675 -665
-57 665 675
-676 -57
-676 -674
57 674 676
-677 -675
-677 -676
675 676 677
-678 133
-678 -677
-133 677 678
-679 54
-679 -133
-54 133 679
-680 -678
-680 -679
678 679 680
-681 54
-681 394
-54 -394 681
-682 -55
-682 681
55 -681 682
-683 -246
-683 -682
246 682 683
-684 56
-684 170
-56 -170 684
-685 -56
-685 -683
56 683 685
-686 -684
-686 -685
684 685 686
-687 55
-687 -668
-55 668 687
-688 -54
-688 -397
54 397 688
-689 55
-689 688
-55 -688 689
-690 -170
-690 -689
170 689 690
-691 56
-691 -687
-56 687 691
-692 -56
-692 -690
56 690 692
-693 -691
-693 -692
691 692 693
-694 57
-694 -686
-57 686 694
-695 -57
-695 -693
57 693 695
-696 -694
-696 -695
694 695 696
-697 133
-697 -696
-133 696 697
-698 55
-698 -133
-55 133 698
-699 -697
-699 -698
697 698 699
-700 54
-700 -394
-54 394 700
-701 54
-701 55
-54 -55 701
-702 -55
-702 700
55 -700 702
-703 -701
-703 -702
701 702 703
-704 -55
-704 56
55 -56 704
-705 -56
-705 -703
56 703 705
-706 -704
-706 -705
704 705 706
-707 -54
-707 397
54 -397 707
-708 -54
-708 -707
54 707 708
-709 55
-709 -708
-55 708 709
-710 -56
-710 709
56 -709 710
-711 -691
-711 -710
691 710 711
-712 57
-712 -706
-57 706 712
-713 -57
-713 -711
57 711 713
-714 -712
-714 -713
712 713 714
-715 133
-715 -714
-133 714 715
-716 56
-716 -133
-56 133 716
-717 -715
-717 -716
715 716 717
-718 56
-718 -704
-56 704 718
-719 14
-719 54
-14 -54 719
-720 55
-720 719
-55 -719 720
-721 56
-721 720
-56 -720 721
-722 57
-722 -718
-57 718 722
-723 -57
-723 721
57 -721 723
-724 -722
-724 -723
722 723 724
-725 133
-725 -724
-133 724 725
-726 57
-726 -133
-57 133 726
-727 -725
-727 -726
725 726 727
-728 -59
-728 -181
59 181 728
-729 60
-729 181
-60 -181 729
-730 -60
-730 -728
60 728 730
-731 -729
-731 -730
729 730 731
-732 -15
-732 58
15 -58 732
-733 58
-733 -732
-58 732 733
-734 59
-734 -733
-59 733 734
-735 15
-735 -58
-15 58 735
-736 -59
-736 735
59 -735 736
-737 -253
-737 -736
253 736 737
-738 60
-738 734
-60 -734 738
-739 -60
-739 -737
60 737 739
-740 -738
-740 -739
738 739 740
-741 61
-741 -731
-61 731 741
-742 -61
-742 -740
61 740 742
-743 -741
-743 -742
741 742 743
-744 134
-744 -743
-134 743 744
-745 58
-745 -134
-58 134 745
-746 -744
-746 -745
744 745 746
-747 58
-747 394
-58 -394 747
-748 -59
-748 747
59 -747 748
-749 -253
-749 -748
253 748 749
-750 60
-750 178
-60 -178 750
-751 -60
-751 -749
60 749 751
-752 -750
-752 -751
750 751 752
-753 59
-753 -734
-59 734 753
-754 -58
-754 -397
58 397 754
-755 59
-755 754
-59 -754 755
-756 -178
-756 -755
178 755 756
-757 60
-757 -753
-60 753 757
-758 -60
-758 -756
60 756 758
-759 -757
-759 -758
757 758 759
-760 61
-760 -752
-61 752 760
-761 -61
-761 -759
61 759 761
-762 -760
-762 -761
760 761 762
-763 134
-763 -762
-134 762 763
-764 59
-764 -134
-59 134 764
-765 -763
-765 -764
763 764 765
-766 58
-766 -394
-58 394 766
-767 58
-767 59
-58 -59 767
-768 -59
-768 766
59 -766 768
-769 -767
-769 -768
767 768 769
-770 -59
-770 60
59 -60 770
-771 -60
-771 -769
60 769 771
-772 -770
-772 -771
770 771 772
-773 -58
-773 397
58 -397 773
-774 -58
-774 -773
58 773 774
-775 59
-775 -774
-59 774 775
-776 -60
-776 775
60 -775 776
-777 -757
-777 -776
757 776 777
-778 61
-778 -772
-61 772 778
-779 -61
-779 -777
61 777 779
-780 -778
-780 -779
778 779 780
-781 134
-781 -780
-134 780 781
-782 60
-782 -134
-60 134 782
-783 -781
-783 -782
781 782 783
-784 60
-784 -770
-60 770 784
-785 15
-785 58
-15 -58 785
-786 59
-786 785
-59 -785 786
-787 60
-787 786
-60 -786 787
-788 61
-788 -784
-61 784 788
-789 -61
-789 787
61 -787 789
-790 -788
-790 -789
788 789 790
-791 134
-791 -790
-134 790 791
-792 61
-792 -134
-61 134 792
-793 -791
-793 -792
791 792 793
-794 -63
-794 -189
63 189 794
-795 64
-795 189
-64 -189 795
-796 -64
-796 -794
64 794 796
-797 -795
-797 -796
795 796 797
-798 -16
-798 62
16 -62 798
-799 62
-799 -798
-62 798 799
-800 63
-800 -799
-63 799 800
-801 16
-801 -62
-16 62 801
-802 -63
-802 801
63 -801 802
-803 -260
-803 -802
260 802 803
-804 64
-804 800
-64 -800 804
-805 -64
-805 -803
64 803 805
-806 -804
-806 -805
804 805 806
-807 65
-807 -797
-65 797 807
-808 -65
-808 -806
65 806 808
-809 -807
-809 -808
807 808 809
-810 135
-810 -809
-135 809 810
-811 62
-811 -135
-62 135 811
-812 -810
-812 -811
810 811 812
-813 62
-813 394
-62 -394 813
-814 -63
-814 813
63 -813 814
-815 -260
-815 -814
260 814 815
-816 64
-816 186
-64 -186 816
-817 -64
-817 -815
64 815 817
-818 -816
-818 -817
816 817 818
-819 63
-819 -800
-63 800 819
-820 -62
-820 -397
62 397 820
-821 63
-821 820
-63 -820 821
-822 -186
-822 -821
186 821 822
-823 64
-823 -819
-64 819 823
-824 -64
-824 -822
64 822 824
-825 -823
-825 -824
823 824 825
-826 65
-826 -818
-65 818 826
-827 -65
-827 -825
65 825 827
-828 -826
-828 -827
826 827 828
-829 135
-829 -828
-135 828 829
-830 63
-830 -135
-63 135 830
-831 -829
-831 -830
829 830 831
-832 62
-832 -394
-62 394 832
-833 62
-833 63
-62 -63 833
-834 -63
-834 832
63 -832 834
-835 -833
-835 -834
833 834 835
-836 -63
-836 64
63 -64 836
-837 -64
-837 -835
64 835 837
-838 -836
-838 -837
836 837 838
-839 -62
-839 397
62 -397 839
-840 -62
-840 -839
62 839 840
-841 63
-841 -840
-63 840 841
-842 -64
-842 841
64 -841 842
-843 -823
-843 -842
823 842 843
-844 65
-844 -838
-65 838 844
-845 -65
-845 -843
65 843 845
-846 -844
-846 -845
844 845 846
-847 135
-847 -846
-135 846 847
-848 64
-848 -135
-64 135 848
-849 -847
-849 -848
847 848 849
-850 64
-850 -836
-64 836 850
-851 16
-851 62
-16 -62 851
-852 63
-852 851
-63 -851 852
-853 64
-853 852
-64 -852 853
-854 65
-854 -850
-65 850 854
-855 -65
-855 853
65 -853 855
-856 -854
-856 -855
854 855 856
-857 135
-857 -856
-135 856 857
-858 65
-858 -135
-65 135 858
-859 -857
-859 -858
857 858 859
-860 -67
-860 -197
67 197 860
-861 68
-861 197
-68 -197 861
-862 -68
-862 -860
68 860 862
-863 -861
-863 -862
861 862 863
-864 -17
-864 66
17 -66 864
-865 66
-865 -864
-66 864 865
-866 67
-866 -865
-67 865 866
-867 17
-867 -66
-17 66 867
-868 -67
-868 867
67 -867 868
-869 -267
-869 -868
267 868 869
-870 68
-870 866
-68 -866 870
-871 -68
-871 -869
68 869 871
-872 -870
-872 -871
870 871 872
-873 69
-873 -863
-69 863 873
-874 -69
-874 -872
69 872 874
-875 -873
-875 -874
873 874 875
-876 136
-876 -875
-136 875 876
-877 66
-877 -136
-66 136 877
-878 -876
-878 -877
876 877 878
-879 66
-879 394
-66 -394 879
-880 -67
-880 879
67 -879 880
-881 -267
-881 -880
267 880 881
-882 68
-882 194
-68 -194 882
-883 -68
-883 -881
68 881 883
-884 -882
-884 -883
882 883 884
-885 67
-885 -866
-67 866 885
-886 -66
-886 -397
66 397 886
-887 67
-887 886
-67 -886 887
-888 -194
-888 -887
194 887 888
-889 68
-889 -885
-68 885 889
-890 -68
-890 -888
68 888 890
-891 -889
-891 -890
889 890 891
-892 69
-892 -884
-69 884 892
-893 -69
-893 -891
69 891 893
-894 -892
-894 -893
892 893 894
-895 136
-895 -894
-136 894 895
-896 67
-896 -136
-67 136 896
-897 -895
-897 -896
895 896 897
-898 66
-898 -394
-66 394 898
-899 66
-899 67
-66 -67 899
-900 -67
-900 898
67 -898 900
-901 -899
-901 -900
899 900 901
-902 -67
-902 68
67 -68 902
-903 -68
-903 -901
68 901 903
-904 -902
-904 -903
902 903 904
-905 -66
-905 397
66 -397 905
-906 -66
-906 -905
66 905 906
-907 67
-907 -906
-67 906 907
-908 -68
-908 907
68 -907 908
-909 -889
-909 -908
889 908 909
-910 69
-910 -904
-69 904 910
-911 -69
-911 -909
69 909 911
-912 -910
-912 -911
910 911 912
-913 136
-913 -912
-136 912 913
-914 68
-914 -136
-68 136 914
-915 -913
-915 -914
913 914 915
-916 68
-916 -902
-68 902 916
-917 17
-917 66
-17 -66 917
-918 67
-918 917
-67 -917 918
-919 68
-919 918
-68 -918 919
-920 69
-920 -916
-69 916 920
-921 -69
-921 919
69 -919 921
-922 -920
-922 -921
920 921 922
-923 136
-923 -922
-136 922 923
-924 69
-924 -136
-69 136 924
-925 -923
-925 -924
923 924 925
-926 -71
-926 -205
71 205 926
-927 72
-927 205
-72 -205 927
-928 -72
-928 -926
72 926 928
-929 -927
-929 -928
927 928 929
-930 -18
-930 70
18 -70 930
-931 70
-931 -930
-70 930 931
-932 71
-932 -931
-71 931 932
-933 18
-933 -70
-18 70 933
-934 -71
-934 933
71 -933 934
-935 -274
-935 -934
274 934 935
-936 72
-936 932
-72 -932 936
-937 -72
-937 -935
72 935 937
-938 -936
-938 -937
936 937 938
-939 73
-939 -929
-73 929 939
-940 -73
-940 -938
73 938 940
-941 -939
-941 -940
939 940 941
-942 137
-942 -941
-137 941 942
-943 70
-943 -137
-70 137 943
-944 -942
-944 -943
942 943 944
-945 70
-945 394
-70 -394 945
-946 -71
-946 945
71 -945 946
-947 -274
-947 -946
274 946 947
-948 72
-948 202
-72 -202 948
-949 -72
-949 -947
72 947 949
-950 -948
-950 -949
948 949 950
-951 71
-951 -932
-71 932 951
-952 -70
-952 -397
70 397 952
-953 71
-953 952
-71 -952 953
-954 -202
-954 -953
202 953 954
-955 72
-955 -951
-72 951 955
-956 -72
-956 -954
72 954 956
-957 -955
-957 -956
955 956 957
-958 73
-958 -950
-73 950 958
-959 -73
-959 -957
73 957 959
-960 -958
-960 -959
958 959 960
-961 137
-961 -960
-137 960 961
-962 71
-962 -137
-71 137 962
-963 -961
-963 -962
961 962 963
-964 70
-964 -394
-70 394 964
-965 70
-965 71
-70 -71 965
-966 -71
-966 964
71 -964 966
-967 -965
-967 -966
965 966 967
-968 -71
-968 72
71 -72 968
-969 -72
-969 -967
72 967 969
-970 -968
-970 -969
968 969 970
-971 -70
-971 397
70 -397 971
-972 -70
-972 -971
70 971 972
-973 71
-973 -972
-71 972 973
-974 -72
-974 973
72 -973 974
-975 -955
-975 -974
955 974 975
-976 73
-976 -970
-73 970 976
-977 -73
-977 -975
73 975 977
-978 -976
-978 -977
976 977 978
-979 137
-979 -978
-137 978 979
-980 72
-980 -137
-72 137 980
-981 -979
-981 -980
979 980 981
-982 72
-982 -968
-72 968 982
-983 18
-983 70
-18 -70 983
-984 71
-984 983
-71 -983 984
-985 72
-985 984
-72 -984 985
-986 73
-986 -982
-73 982 986
-987 -73
-987 985
73 -985 987
-988 -986
-988 -987
986 987 988
-989 137
-989 -988
-137 988 989
-990 73
-990 -137
-73 137 990
-991 -989
-991 -990
989 990 991
-992 139
-992 437
-139 -437 992
-993 129
-993 992
-129 -992 993
-994 147
-994 503
-147 -503 994
-995 130
-995 994
-130 -994 995
-996 155
-996 569
-155 -569 996
-997 131
-997 996
-131 -996 997
-998 163
-998 635
-163 -635 998
-999 132
-999 998
-132 -998 999
-1000 171
-1000 701
-171 -701 1000
-1001 133
-1001 1000
-133 -1000 1001
-1002 179
-1002 767
-179 -767 1002
-1003 134
-1003 1002
-134 -1002 1003
-1004 187
-1004 833
-187 -833 1004
-1005 135
-1005 1004
-135 -1004 1005
-1006 195
-1006 899
-195 -899 1006
-1007 136
-1007 1006
-136 -1006 1007
-1008 203
-1008 965
-203 -965 1008
-1009 137
-1009 1008
-137 -1008 1009
-1010 -993
-1010 -995
993 995 1010
-1011 -997
-1011 -999
997 999 1011
-1012 -1001
-1012 -1003
1001 1003 1012
-1013 -1005
-1013 -1007
1005 1007 1013
-1014 1010
-1014 1011
-1010 -1011 1014
-1015 1012
-1015 1013
-1012 -1013 1015
-1016 1014
-1016 1015
-1014 -1015 1016
-1017 -1009
-1017 1016
1009 -1016 1017
-1018 142
-1018 218
-142 -218 1018
-1019 129
-1019 1018
-129 -1018 1019
-1020 150
-1020 225
-150 -225 1020
-1021 130
-1021 1020
-130 -1020 1021
-1022 158
-1022 232
-158 -232 1022
-1023 131
-1023 1022
-131 -1022 1023
-1024 166
-1024 239
-166 -239 1024
-1025 132
-1025 1024
-132 -1024 1025
-1026 174
-1026 246
-174 -246 1026
-1027 133
-1027 1026
-133 -1026 1027
-1028 182
-1028 253
-182 -253 1028
-1029 134
-1029 1028
-134 -1028 1029
-1030 190
-1030 260
-190 -260 1030
-1031 135
-1031 1030
-135 -1030 1031
-1032 198
-1032 267
-198 -267 1032
-1033 136
-1033 1032
-136 -1032 1033
-1034 206
-1034 274
-206 -274 1034
-1035 137
-1035 1034
-137 -1034 1035
-1036 -1019
-1036 -1021
1019 1021 1036
-1037 -1023
-1037 -1025
1023 1025 1037
-1038 -1027
-1038 -1029
1027 1029 1038
-1039 -1031
-1039 -1033
1031 1033 1039
-1040 1036
-1040 1037
-1036 -1037 1040
-1041 1038
-1041 1039
-1038 -1039 1041
-1042 1040
-1042 1041
-1040 -1041 1042
-1043 -1035
-1043 1042
1035 -1042 1043
-1044 -74
-1044 75
74 -75 1044
-1045 74
-1045 -75
-74 75 1045
-1046 -1044
-1046 -1045
1044 1045 1046
-1047 74
-1047 75
-74 -75 1047
-1048 76
-1048 -1047
-76 1047 1048
-1049 -76
-1049 1047
76 -1047 1049
-1050 -1048
-1050 -1049
1048 1049 1050
-1051 76
-1051 1047
-76 -1047 1051
-1052 77
-1052 -1051
-77 1051 1052
-1053 -77
-1053 1051
77 -1051 1053
-1054 -1052
-1054 -1053
1052 1053 1054
-1055 77
-1055 1051
-77 -1051 1055
-1056 -395
-1056 -1047
395 1047 1056
-1057 76
-1057 -395
-76 395 1057
-1058 -76
-1058 395
76 -395 1058
-1059 -1057
-1059 -1058
1057 1058 1059
-1060 77
-1060 -1058
-77 1058 1060
-1061 -77
-1061 1058
77 -1058 1061
-1062 -1060
-1062 -1061
1060 1061 1062
-1063 -74
-1063 -1043
74 1043 1063
-1064 74
-1064 1043
-74 -1043 1064
-1065 -1063
-1065 -1064
1063 1064 1065
-1066 -74
-1066 -1017
74 1017 1066
-1067 1017
-1067 -1065
-1017 1065 1067
-1068 -1066
-1068 -1067
1066 1067 1068
-1069 -1043
-1069 -1056
1043 1056 1069
-1070 75
-1070 1043
-75 -1043 1070
-1071 -1069
-1071 -1070
1069 1070 1071
-1072 -1017
-1072 -1046
1017 1046 1072
-1073 1017
-1073 -1071
-1017 1071 1073
-1074 -1072
-1074 -1073
1072 1073 1074
-1075 -1043
-1075 -1059
1043 1059 1075
-1076 76
-1076 1043
-76 -1043 1076
-1077 -1075
-1077 -1076
1075 1076 1077
-1078 -1017
-1078 -1050
1017 1050 1078
-1079 1017
-1079 -1077
-1017 1077 1079
-1080 -1078
-1080 -1079
1078 1079 1080
-1081 -1043
-1081 -1062
1043 1062 1081
-1082 77
-1082 1043
-77 -1043 1082
-1083 -1081
-1083 -1082
1081 1082 1083
-1084 -1017
-1084 -1054
1017 1054 1084
-1085 1017
-1085 -1083
-1017 1083 1085
-1086 -1084
-1086 -1085
1084 1085 1086
-1087 219
-1087 437
-219 -437 1087
-1088 -29
-1088 1087
29 -1087 1088
-1089 226
-1089 503
-226 -503 1089
-1090 -30
-1090 1089
30 -1089 1090
-1091 233
-1091 569
-233 -569 1091
-1092 -31
-1092 1091
31 -1091 1092
-1093 240
-1093 635
-240 -635 1093
-1094 -32
-1094 1093
32 -1093 1094
-1095 247
-1095 701
-247 -701 1095
-1096 -33
-1096 1095
33 -1095 1096
-1097 254
-1097 767
-254 -767 1097
-1098 -34
-1098 1097
34 -1097 1098
-1099 261
-1099 833
-261 -833 1099
-1100 -35
-1100 1099
35 -1099 1100
-1101 268
-1101 899
-268 -899 1101
-1102 -36
-1102 1101
36 -1101 1102
-1103 275
-1103 965
-275 -965 1103
-1104 -37
-1104 1103
37 -1103 1104
-1105 1088
-1105 -1090
-1088 1090 1105
-1106 -1088
-1106 1090
1088 -1090 1106
-1107 -1105
-1107 -1106
1105 1106 1107
-1108 1088
-1108 1090
-1088 -1090 1108
-1109 -1092
-1109 -1107
1092 1107 1109
-1110 1092
-1110 1107
-1092 -1107 1110
-1111 -1109
-1111 -1110
1109 1110 1111
-1112 1092
-1112 -1107
-1092 1107 1112
-1113 1108
-1113 -1112
-1108 1112 1113
-1114 -1108
-1114 1112
1108 -1112 1114
-1115 -1113
-1115 -1114
1113 1114 1115
-1116 1108
-1116 1112
-1108 -1112 1116
-1117 -1094
-1117 -1111
1094 1111 1117
-1118 1094
-1118 1111
-1094 -1111 1118
-1119 -1117
-1119 -1118
1117 1118 1119
-1120 1094
-1120 -1111
-1094 1111 1120
-1121 -1116
-1121 -1119
1116 1119 1121
-1122 1116
-1122 1119
-1116 -1119 1122
-1123 -1121
-1123 -1122
1121 1122 1123
-1124 1116
-1124 -1119
-1116 1119 1124
-1125 -1120
-1125 -1124
1120 1124 1125
-1126 -1115
-1126 1125
1115 -1125 1126
-1127 1115
-1127 -1125
-1115 1125 1127
-1128 -1126
-1128 -1127
1126 1127 1128
-1129 -1115
-1129 -1125
1115 1125 1129
-1130 -1096
-1130 -1123
1096 1123 1130
-1131 1096
-1131 1123
-1096 -1123 1131
-1132 -1130
-1132 -1131
1130 1131 1132
-1133 1096
-1133 -1123
-1096 1123 1133
-1134 -1128
-1134 -1133
1128 1133 1134
-1135 1128
-1135 1133
-1128 -1133 1135
-1136 -1134
-1136 -1135
1134 1135 1136
-1137 -1128
-1137 1133
1128 -1133 1137
-1138 1129
-1138 -1137
-1129 1137 1138
-1139 -1129
-1139 1137
1129 -1137 1139
-1140 -1138
-1140 -1139
1138 1139 1140
-1141 1129
-1141 1137
-1129 -1137 1141
-1142 -1098
-1142 -1132
1098 1132 1142
-1143 1098
-1143 1132
-1098 -1132 1143
-1144 -1142
-1144 -1143
1142 1143 1144
-1145 1098
-1145 -1132
-1098 1132 1145
-1146 -1141
-1146 -1144
1141 1144 1146
-1147 1141
-1147 1144
-1141 -1144 1147
-1148 -1146
-1148 -1147
1146 1147 1148
-1149 1141
-1149 -1144
-1141 1144 1149
-1150 -1145
-1150 -1149
1145 1149 1150
-1151 -1136
-1151 1150
1136 -1150 1151
-1152 1136
-1152 -1150
-1136 1150 1152
-1153 -1151
-1153 -1152
1151 1152 1153
-1154 -1136
-1154 -1150
1136 1150 1154
-1155 -1140
-1155 -1154
1140 1154 1155
-1156 1140
-1156 1154
-1140 -1154 1156
-1157 -1155
-1157 -1156
1155 1156 1157
-1158 -1140
-1158 1154
1140 -1154 1158
-1159 -1100
-1159 -1148
1100 1148 1159
-1160 1100
-1160 1148
-1100 -1148 1160
-1161 -1159
-1161 -1160
1159 1160 1161
-1162 1100
-1162 -1148
-1100 1148 1162
-1163 -1158
-1163 -1161
1158 1161 1163
-1164 1158
-1164 1161
-1158 -1161 1164
-1165 -1163
-1165 -1164
1163 1164 1165
-1166 1158
-1166 -1161
-1158 1161 1166
-1167 -1162
-1167 -1166
1162 1166 1167
-1168 -1153
-1168 1167
1153 -1167 1168
-1169 1153
-1169 -1167
-1153 1167 1169
-1170 -1168
-1170 -1169
1168 1169 1170
-1171 -1153
-1171 -1167
1153 1167 1171
-1172 -1157
-1172 -1171
1157 1171 1172
-1173 1157
-1173 1171
-1157 -1171 1173
-1174 -1172
-1174 -1173
1172 1173 1174
-1175 -1157
-1175 1171
1157 -1171 1175
-1176 -1102
-1176 -1165
1102 1165 1176
-1177 1102
-1177 1165
-1102 -1165 1177
-1178 -1176
-1178 -1177
1176 1177 1178
-1179 1102
-1179 -1165
-1102 1165 1179
-1180 -1175
-1180 -1178
1175 1178 1180
-1181 1175
-1181 1178
-1175 -1178 1181
-1182 -1180
-1182 -1181
1180 1181 1182
-1183 1175
-1183 -1178
-1175 1178 1183
-1184 -1179
-1184 -1183
1179 1183 1184
-1185 -1170
-1185 1184
1170 -1184 1185
-1186 1170
-1186 -1184
-1170 1184 1186
-1187 -1185
-1187 -1186
1185 1186 1187
-1188 -1170
-1188 -1184
1170 1184 1188
-1189 -1174
-1189 -1188
1174 1188 1189
-1190 1174
-1190 1188
-1174 -1188 1190
-1191 -1189
-1191 -1190
1189 1190 1191
-1192 -1174
-1192 1188
1174 -1188 1192
-1193 -1104
-1193 -1182
1104 1182 1193
-1194 1104
-1194 1182
-1104 -1182 1194
-1195 -1193
-1195 -1194
1193 1194 1195
-1196 1104
-1196 -1182
-1104 1182 1196
-1197 -1187
-1197 -1196
1187 1196 1197
-1198 1187
-1198 1196
-1187 -1196 1198
-1199 -1197
-1199 -1198
1197 1198 1199
-1200 -1187
-1200 1196
1187 -1196 1200
-1201 -1191
-1201 -1200
1191 1200 1201
-1202 1191
-1202 1200
-1191 -1200 1202
-1203 -1201
-1203 -1202
1201 1202 1203
-1204 -1191
-1204 1200
1191 -1200 1204
-1205 1192
-1205 -1204
-1192 1204 1205
-1206 -1192
-1206 1204
1192 -1204 1206
-1207 -1205
-1207 -1206
1205 1206 1207
-1208 1192
-1208 1204
-1192 -1204 1208
-1209 -1195
-1209 1199
1195 -1199 1209
-1210 1199
-1210 -1209
-1199 1209 1210
-1211 1203
-1211 -1210
-1203 1210 1211
-1212 1203
-1212 -1211
-1203 1211 1212
-1213 -1207
-1213 -1212
1207 1212 1213
-1214 -394
-1214 -397
394 397 1214
-1215 -1017
-1215 1055
1017 -1055 1215
-1216 -1043
-1216 1061
1043 -1061 1216
-1217 -1213
-1217 -1215
1213 1215 1217
-1218 -1214
-1218 -1216
1214 1216 1218
-1219 1217
-1219 1218
-1217 -1218 1219
-1219
